(set-option :produce-models true)
(set-logic QF_UF)
(declare-fun p19() Bool)
(declare-fun p47() Bool)
(declare-fun p25() Bool)
(declare-fun p8() Bool)
(declare-fun p3() Bool)
(declare-fun p12() Bool)
(declare-fun p9() Bool)
(declare-fun p34() Bool)
(declare-fun p6() Bool)
(declare-fun p27() Bool)
(declare-fun p10() Bool)
(declare-fun p41() Bool)
(declare-fun p40() Bool)
(declare-fun p29() Bool)
(declare-fun p0() Bool)
(declare-fun p32() Bool)
(declare-fun p5() Bool)
(declare-fun p33() Bool)
(declare-fun p26() Bool)
(declare-fun p39() Bool)
(declare-fun p42() Bool)
(declare-fun p4() Bool)
(declare-fun p16() Bool)
(declare-fun p1() Bool)
(declare-fun p13() Bool)
(declare-fun p28() Bool)
(declare-fun p49() Bool)
(declare-fun p2() Bool)
(declare-fun p45() Bool)
(declare-fun p17() Bool)
(declare-fun p30() Bool)
(declare-fun p18() Bool)
(declare-fun p14() Bool)
(declare-fun p24() Bool)
(declare-fun p21() Bool)
(declare-fun p11() Bool)
(declare-fun p31() Bool)
(declare-fun p35() Bool)
(declare-fun p38() Bool)
(declare-fun p37() Bool)
(declare-fun p15() Bool)
(declare-fun p22() Bool)
(declare-fun p46() Bool)
(declare-fun p48() Bool)
(declare-fun p23() Bool)
(declare-fun p20() Bool)
(declare-fun p36() Bool)
(declare-fun p44() Bool)
(declare-fun p7() Bool)
(declare-fun p43() Bool)
(assert
(and (or p19 p47 (not p25)) (or p8 p3 (not p12)) (or (not p9) p34 p6) (or p27 p10 (not p41)) (or (not p40) (not p12) (not p29)) (or p34 (not p0) (not p32)) (or (not p5) (not p33) p26) (or p26 (not p9) p40) (or p29 p39 (not p42)) (or p4 (not p16) (not p1)) (or (not p13) p13 p34) (or (not p12) p28 (not p49)) (or p2 (not p45) p42) (or (not p1) (not p8) (not p17)) (or p41 p34 (not p30)) (or (not p8) (not p1) p41) (or p18 p4 p40) (or p4 p40 (not p26)) (or p13 (not p41) (not p14)) (or (not p24) (not p21) (not p3)) (or (not p12) p24 (not p11)) (or (not p31) (not p42) (not p8)) (or (not p35) p21 (not p34)) (or (not p14) p16 (not p45)) (or (not p40) p27 (not p34)) (or p8 p31 (not p4)) (or (not p16) p42 p25) (or (not p47) p32 p32) (or p0 (not p16) (not p16)) (or p32 (not p38) p37) (or p39 (not p35) (not p35)) (or p45 (not p39) (not p26)) (or (not p39) (not p15) (not p8)) (or (not p2) p22 p30) (or (not p15) p45 p46) (or p28 (not p32) p25) (or p48 p23 p32) (or (not p23) (not p38) p26) (or p31 (not p49) (not p21)) (or p0 (not p26) p31) (or (not p28) (not p21) (not p31)) (or p18 (not p27) (not p6)) (or p0 p45 (not p33)) (or p14 (not p25) (not p45)) (or p3 p1 p0) (or (not p15) (not p20) (not p17)) (or p6 (not p4) p33) (or p14 p35 (not p13)) (or p48 p47 p0) (or p36 (not p44) p46) (or (not p19) p28 (not p18)) (or p40 p38 (not p12)) (or p26 p10 (not p24)) (or p41 (not p10) (not p10)) (or p27 (not p37) p45) (or (not p33) p17 (not p20)) (or p7 p27 p24) (or p0 p30 p40) (or p14 (not p14) (not p41)) (or (not p37) (not p34) p2) (or (not p16) p43 (not p1)) (or p24 p14 p49) (or (not p35) (not p16) p34) (or p1 (not p31) p44) (or p43 (not p26) (not p10)) (or (not p20) (not p17) p41) (or p4 p23 (not p49)) (or p37 (not p37) (not p40)) (or p14 p15 p42) (or (not p28) (not p11) (not p17)) (or (not p41) (not p45) p3) (or p26 p15 p3) (or p44 (not p38) p15) (or p31 (not p39) (not p2)) (or p18 (not p28) (not p23)) (or (not p4) (not p26) (not p45)) (or (not p11) (not p47) p23) (or (not p20) (not p8) (not p24)) (or p40 p31 p48) (or (not p12) (not p38) (not p38)) (or p43 p35 p18) (or (not p31) p37 (not p10)) (or p47 p23 (not p41)) (or (not p19) (not p46) (not p34)) (or (not p36) p48 (not p49)) (or p15 (not p0) (not p13)) (or (not p16) (not p17) (not p19)) (or (not p48) (not p0) (not p0)) (or p26 p49 p22) (or p30 (not p10) (not p45)) (or (not p23) p41 p26) (or p5 (not p7) p23) (or p37 p41 (not p0)) (or (not p32) p36 p24) (or (not p2) p31 (not p8)) (or (not p11) p49 p29) (or p32 (not p16) (not p31)) (or p36 (not p2) p0) (or (not p32) p29 p19) (or p9 (not p27) p12) (or p35 (not p8) (not p3)) (or p13 (not p23) p34) (or p43 (not p19) p31) (or (not p10) p5 p36) (or p4 (not p18) (not p45)) (or (not p14) p44 p14) (or p26 p17 p39) (or p13 (not p6) (not p48)) (or p49 (not p49) (not p38)) (or p12 p43 p26) (or (not p41) p41 p28) (or (not p33) p10 (not p17)) (or (not p19) p17 p14) (or (not p24) p27 p8) (or (not p1) p11 p2) (or p19 (not p42) p32) (or p14 p49 p20) (or (not p4) p24 p0) (or p2 (not p35) p20) (or p42 p20 p0) (or p10 (not p23) (not p18)) (or p21 p43 (not p3)) (or (not p38) (not p31) (not p10)) (or p36 p27 (not p16)) (or (not p44) (not p0) p46) (or (not p33) (not p6) p29) (or p49 (not p4) p41) (or p27 p37 p10) (or p47 (not p21) (not p45)) (or p7 (not p1) p21) (or (not p3) p9 p44) (or (not p5) (not p40) p25) (or (not p42) p45 p40) (or p34 p37 (not p26)) (or (not p13) p40 (not p20)) (or (not p26) (not p28) p9) (or (not p16) (not p17) p31) (or (not p34) p21 p30) (or (not p45) p26 (not p40)) (or p34 p34 p12) (or (not p33) (not p29) p12) (or (not p14) p5 (not p38)) (or p4 (not p29) p31) (or (not p8) (not p7) p13) (or p23 p1 (not p38)) (or p40 p34 p31) (or p44 (not p8) (not p21)) (or p11 (not p40) p23) (or (not p3) (not p36) (not p26)) (or p38 (not p49) (not p11)) (or p29 (not p29) (not p30)) (or (not p28) p28 p7) (or p28 (not p40) (not p42)) (or (not p17) p5 (not p27)) (or p46 p27 (not p15)) (or p11 (not p41) p15) (or p41 (not p25) p39) (or (not p35) (not p24) (not p17)) (or (not p28) p22 (not p21)) (or p47 (not p22) (not p17)) (or (not p39) (not p8) p26) (or (not p2) (not p45) p18) (or (not p46) p46 p49) (or p46 (not p48) (not p6)) (or (not p35) p9 p29) (or p0 p4 (not p42)) (or (not p29) (not p9) p10) (or p45 (not p10) (not p24)) (or (not p12) (not p32) (not p11)) (or (not p47) p28 p46) (or (not p25) (not p13) p18) (or (not p28) p46 p10) (or (not p22) p31 p8) (or p32 p7 (not p13)) (or (not p35) p27 (not p30)) (or p42 p30 (not p11)) (or p19 (not p3) (not p44)) (or p17 p47 (not p34)) (or p49 p10 (not p34)) (or (not p12) (not p11) (not p3)) (or p44 (not p37) (not p36)) (or (not p19) p35 p24) (or p2 (not p17) p9) (or p26 (not p28) (not p35)) (or (not p12) (not p22) p30) (or p44 (not p1) (not p28)) (or (not p49) (not p31) p21) (or p42 (not p14) (not p41)) (or (not p34) (not p27) p30) (or (not p44) p23 p24) (or (not p41) p33 (not p35)) (or p17 (not p22) (not p29)) (or p49 p34 (not p17)) (or p6 p2 (not p13)) (or (not p44) (not p32) (not p41)) (or (not p8) p15 p31) (or (not p15) p38 (not p49)) (or (not p11) p30 (not p28)) (or p4 p26 p33) (or p45 (not p8) p19) (or (not p13) (not p39) (not p43)) (or (not p19) p17 p44) (or p33 p27 (not p3)) (or (not p48) p29 p29) (or p46 p23 p39) (or p23 p30 p38) (or p18 p34 (not p40)) (or (not p11) p3 p39) (or p46 (not p4) p8) (or (not p20) p43 (not p17)))
)
(check-sat)
(get-model)
